VertexID	Color
2	1
1	1
3	1
5	1
6	1
8	1
9	1
10	1
12	1
13	1
15	1
17	1
18	1
24	1
25	1
26	1
28	1
30	1
38	1
41	1
44	1
48	1
62	1
63	1
64	1
65	1
70	1
75	1
82	1
4	2
7	2
11	2
16	2
23	2
27	2
31	2
36	2
37	2
39	2
47	2
51	2
53	2
54	2
56	2
57	2
61	2
71	2
78	2
80	2
86	2
19	3
14	3
22	3
29	3
59	3
32	4
33	4
35	4
40	4
42	4
45	4
49	4
60	4
34	5
43	5
50	5
52	5
67	5
77	5
79	5
46	6
58	6
68	6
76	6
81	6
85	6
55	7
20	7
69	7
72	7
73	7
66	8
84	8
74	9
83	10
87	11
21	11
